NAME /Users/henri/Research/solvers/instances/idol-instances/robust/collection/spp_dkp_Lefebvre_et_al_2026/shortest_path_6_1/uncertainty_sets/discrete_knapsack
ROWS
 N  OBJ
 L  primal_lower
COLUMNS
    MARKER    'MARKER'                 'INTORG'
    y[0,2]     OBJ        0
    y[0,2]     primal_lower -0.59
    y[0,3]     OBJ        0
    y[0,3]     primal_lower -3.12
    y[0,5]     OBJ        0
    y[0,5]     primal_lower -0.68
    y[1,2]     OBJ        0
    y[1,2]     primal_lower -1.23
    y[1,3]     OBJ        0
    y[1,3]     primal_lower -1.68
    y[1,4]     OBJ        0
    y[1,4]     primal_lower -4.4
    y[1,5]     OBJ        0
    y[1,5]     primal_lower -3.41
    y[2,0]     OBJ        0
    y[2,0]     primal_lower -2.77
    y[2,1]     OBJ        0
    y[2,1]     primal_lower -0.15
    y[2,3]     OBJ        0
    y[2,3]     primal_lower -3.76
    y[2,4]     OBJ        0
    y[2,4]     primal_lower -2.02
    y[2,5]     OBJ        0
    y[2,5]     primal_lower -4.11
    y[3,0]     OBJ        0
    y[3,0]     primal_lower -1.3
    y[3,1]     OBJ        0
    y[3,1]     primal_lower -0.29
    y[3,2]     OBJ        0
    y[3,2]     primal_lower -4.44
    y[3,4]     OBJ        0
    y[3,4]     primal_lower -1.13
    y[3,5]     OBJ        0
    y[3,5]     primal_lower -2.08
    y[4,1]     OBJ        0
    y[4,1]     primal_lower -1.62
    y[4,2]     OBJ        0
    y[4,2]     primal_lower -0.39
    y[4,3]     OBJ        0
    y[4,3]     primal_lower -4.32
    y[5,0]     OBJ        0
    y[5,0]     primal_lower -4.35
    y[5,1]     OBJ        0
    y[5,1]     primal_lower -4.98
    y[5,2]     OBJ        0
    y[5,2]     primal_lower -1.98
    y[5,3]     OBJ        0
    y[5,3]     primal_lower -4.89
    u[0,2]     OBJ        0
    u[0,2]     primal_lower 58
    u[0,3]     OBJ        0
    u[0,3]     primal_lower 35
    u[0,5]     OBJ        0
    u[0,5]     primal_lower 35
    u[1,2]     OBJ        0
    u[1,2]     primal_lower 51
    u[1,3]     OBJ        0
    u[1,3]     primal_lower 73
    u[1,4]     OBJ        0
    u[1,4]     primal_lower 49
    u[1,5]     OBJ        0
    u[1,5]     primal_lower 30
    u[2,0]     OBJ        0
    u[2,0]     primal_lower 85
    u[2,1]     OBJ        0
    u[2,1]     primal_lower 39
    u[2,3]     OBJ        0
    u[2,3]     primal_lower 82
    u[2,4]     OBJ        0
    u[2,4]     primal_lower 92
    u[2,5]     OBJ        0
    u[2,5]     primal_lower 58
    u[3,0]     OBJ        0
    u[3,0]     primal_lower 4
    u[3,1]     OBJ        0
    u[3,1]     primal_lower 58
    u[3,2]     OBJ        0
    u[3,2]     primal_lower 90
    u[3,4]     OBJ        0
    u[3,4]     primal_lower 76
    u[3,5]     OBJ        0
    u[3,5]     primal_lower 8
    u[4,1]     OBJ        0
    u[4,1]     primal_lower 95
    u[4,2]     OBJ        0
    u[4,2]     primal_lower 57
    u[4,3]     OBJ        0
    u[4,3]     primal_lower 67
    u[5,0]     OBJ        0
    u[5,0]     primal_lower 18
    u[5,1]     OBJ        0
    u[5,1]     primal_lower 96
    u[5,2]     OBJ        0
    u[5,2]     primal_lower 70
    u[5,3]     OBJ        0
    u[5,3]     primal_lower 28
    MARKER    'MARKER'                 'INTEND'
RHS
    RHS       primal_lower 123
BOUNDS
 LI BND       y[0,2]     0
 UI BND       y[0,2]     1
 LI BND       y[0,3]     0
 UI BND       y[0,3]     1
 LI BND       y[0,5]     0
 UI BND       y[0,5]     1
 LI BND       y[1,2]     0
 UI BND       y[1,2]     1
 LI BND       y[1,3]     0
 UI BND       y[1,3]     1
 LI BND       y[1,4]     0
 UI BND       y[1,4]     1
 LI BND       y[1,5]     0
 UI BND       y[1,5]     1
 LI BND       y[2,0]     0
 UI BND       y[2,0]     1
 LI BND       y[2,1]     0
 UI BND       y[2,1]     1
 LI BND       y[2,3]     0
 UI BND       y[2,3]     1
 LI BND       y[2,4]     0
 UI BND       y[2,4]     1
 LI BND       y[2,5]     0
 UI BND       y[2,5]     1
 LI BND       y[3,0]     0
 UI BND       y[3,0]     1
 LI BND       y[3,1]     0
 UI BND       y[3,1]     1
 LI BND       y[3,2]     0
 UI BND       y[3,2]     1
 LI BND       y[3,4]     0
 UI BND       y[3,4]     1
 LI BND       y[3,5]     0
 UI BND       y[3,5]     1
 LI BND       y[4,1]     0
 UI BND       y[4,1]     1
 LI BND       y[4,2]     0
 UI BND       y[4,2]     1
 LI BND       y[4,3]     0
 UI BND       y[4,3]     1
 LI BND       y[5,0]     0
 UI BND       y[5,0]     1
 LI BND       y[5,1]     0
 UI BND       y[5,1]     1
 LI BND       y[5,2]     0
 UI BND       y[5,2]     1
 LI BND       y[5,3]     0
 UI BND       y[5,3]     1
 LI BND       u[0,2]     0
 UI BND       u[0,2]     1
 LI BND       u[0,3]     0
 UI BND       u[0,3]     1
 LI BND       u[0,5]     0
 UI BND       u[0,5]     1
 LI BND       u[1,2]     0
 UI BND       u[1,2]     1
 LI BND       u[1,3]     0
 UI BND       u[1,3]     1
 LI BND       u[1,4]     0
 UI BND       u[1,4]     1
 LI BND       u[1,5]     0
 UI BND       u[1,5]     1
 LI BND       u[2,0]     0
 UI BND       u[2,0]     1
 LI BND       u[2,1]     0
 UI BND       u[2,1]     1
 LI BND       u[2,3]     0
 UI BND       u[2,3]     1
 LI BND       u[2,4]     0
 UI BND       u[2,4]     1
 LI BND       u[2,5]     0
 UI BND       u[2,5]     1
 LI BND       u[3,0]     0
 UI BND       u[3,0]     1
 LI BND       u[3,1]     0
 UI BND       u[3,1]     1
 LI BND       u[3,2]     0
 UI BND       u[3,2]     1
 LI BND       u[3,4]     0
 UI BND       u[3,4]     1
 LI BND       u[3,5]     0
 UI BND       u[3,5]     1
 LI BND       u[4,1]     0
 UI BND       u[4,1]     1
 LI BND       u[4,2]     0
 UI BND       u[4,2]     1
 LI BND       u[4,3]     0
 UI BND       u[4,3]     1
 LI BND       u[5,0]     0
 UI BND       u[5,0]     1
 LI BND       u[5,1]     0
 UI BND       u[5,1]     1
 LI BND       u[5,2]     0
 UI BND       u[5,2]     1
 LI BND       u[5,3]     0
 UI BND       u[5,3]     1
ENDATA
